NAME: renB10
TYPE: TSP
COMMENT: 10-cities problem B (seed: 2, range: 1000)
DIMENSION: 10
EDGE_WEIGHT_TYPE : EUC_2D
NODE_COORD_SECTION
1 108 372
2 40 67
3 389 350
4 606 719
5 847 68
6 94 86
7 434 614
8 514 416
9 67 399
10 530 231
EOF
